c Created with the Wolfram Language : www.wolfram.com
c 
p edge 90 615
e 1 3
e 4 5
e 5 8
e 6 8
e 5 9
e 7 9
e 8 9
e 5 10
e 8 10
e 1 12
e 6 12
e 7 12
e 5 14
e 8 14
e 11 14
e 9 15
e 11 15
e 12 15
e 8 16
e 13 16
e 3 17
e 8 17
e 4 18
e 16 19
e 12 20
e 2 21
e 3 21
e 15 21
e 16 21
e 12 22
e 14 22
e 19 22
e 20 22
e 13 23
e 22 23
e 3 24
e 12 24
e 17 24
e 20 24
e 22 24
e 1 25
e 6 25
e 7 25
e 14 25
e 14 26
e 18 26
e 22 26
e 18 27
e 25 27
e 16 28
e 26 28
e 10 29
e 16 29
e 22 29
e 25 29
e 26 29
e 5 30
e 6 30
e 22 30
e 24 30
e 28 30
e 3 31
e 7 31
e 9 31
e 10 31
e 27 31
e 29 31
e 7 32
e 22 32
e 15 33
e 18 33
e 32 33
e 9 34
e 10 34
e 11 34
e 12 34
e 13 34
e 14 34
e 16 34
e 25 34
e 29 34
e 33 34
e 1 35
e 5 35
e 6 35
e 7 35
e 10 35
e 28 35
e 2 36
e 4 36
e 14 36
e 18 36
e 20 36
e 22 36
e 24 36
e 27 36
e 6 37
e 13 37
e 25 37
e 15 38
e 17 38
e 22 38
e 23 38
e 32 38
e 36 38
e 2 39
e 3 39
e 13 39
e 14 39
e 29 39
e 35 39
e 36 39
e 8 40
e 10 40
e 33 40
e 8 41
e 10 41
e 11 41
e 14 41
e 15 41
e 23 41
e 30 41
e 39 41
e 9 42
e 26 42
e 27 42
e 32 42
e 3 43
e 8 43
e 11 43
e 31 43
e 32 43
e 37 43
e 40 43
e 42 43
e 5 44
e 17 44
e 18 44
e 29 44
e 34 44
e 16 45
e 25 45
e 36 45
e 1 46
e 8 46
e 27 46
e 28 46
e 29 46
e 45 46
e 4 47
e 14 47
e 31 47
e 37 47
e 38 47
e 4 48
e 7 48
e 8 48
e 27 48
e 41 48
e 43 48
e 4 49
e 15 49
e 43 49
e 4 50
e 7 50
e 16 50
e 29 50
e 35 50
e 1 51
e 2 51
e 3 51
e 10 51
e 19 51
e 21 51
e 36 51
e 42 51
e 48 51
e 5 52
e 13 52
e 20 52
e 23 52
e 40 52
e 42 52
e 43 52
e 50 52
e 3 53
e 21 53
e 22 53
e 31 53
e 32 53
e 35 53
e 38 53
e 40 53
e 46 53
e 48 53
e 2 54
e 6 54
e 10 54
e 12 54
e 13 54
e 24 54
e 25 54
e 27 54
e 33 54
e 39 54
e 43 54
e 50 54
e 2 55
e 7 55
e 11 55
e 14 55
e 21 55
e 22 55
e 23 55
e 25 55
e 35 55
e 38 55
e 43 55
e 44 55
e 4 56
e 5 56
e 6 56
e 8 56
e 10 56
e 12 56
e 20 56
e 23 56
e 25 56
e 34 56
e 43 56
e 49 56
e 51 56
e 8 57
e 12 57
e 30 57
e 33 57
e 37 57
e 41 57
e 43 57
e 44 57
e 45 57
e 46 57
e 50 57
e 51 57
e 53 57
e 1 58
e 2 58
e 11 58
e 18 58
e 19 58
e 24 58
e 28 58
e 35 58
e 42 58
e 49 58
e 55 58
e 57 58
e 1 59
e 3 59
e 18 59
e 21 59
e 27 59
e 28 59
e 35 59
e 40 59
e 43 59
e 47 59
e 50 59
e 54 59
e 55 59
e 6 60
e 9 60
e 16 60
e 18 60
e 22 60
e 26 60
e 33 60
e 36 60
e 47 60
e 50 60
e 56 60
e 57 60
e 1 61
e 2 61
e 4 61
e 8 61
e 13 61
e 27 61
e 39 61
e 43 61
e 45 61
e 51 61
e 52 61
e 53 61
e 5 62
e 9 62
e 10 62
e 16 62
e 18 62
e 20 62
e 39 62
e 44 62
e 49 62
e 51 62
e 57 62
e 61 62
e 5 63
e 18 63
e 30 63
e 34 63
e 51 63
e 58 63
e 7 64
e 8 64
e 9 64
e 18 64
e 22 64
e 31 64
e 39 64
e 45 64
e 50 64
e 9 65
e 11 65
e 22 65
e 25 65
e 26 65
e 36 65
e 37 65
e 47 65
e 2 66
e 12 66
e 19 66
e 23 66
e 29 66
e 32 66
e 40 66
e 44 66
e 46 66
e 49 66
e 60 66
e 4 67
e 13 67
e 15 67
e 23 67
e 24 67
e 30 67
e 31 67
e 35 67
e 41 67
e 51 67
e 52 67
e 53 67
e 57 67
e 65 67
e 7 68
e 8 68
e 12 68
e 16 68
e 33 68
e 39 68
e 42 68
e 45 68
e 51 68
e 63 68
e 4 69
e 8 69
e 9 69
e 12 69
e 14 69
e 23 69
e 26 69
e 36 69
e 39 69
e 40 69
e 48 69
e 50 69
e 53 69
e 63 69
e 18 70
e 30 70
e 31 70
e 39 70
e 40 70
e 43 70
e 51 70
e 55 70
e 56 70
e 59 70
e 64 70
e 9 71
e 11 71
e 16 71
e 20 71
e 22 71
e 27 71
e 28 71
e 32 71
e 35 71
e 38 71
e 48 71
e 52 71
e 66 71
e 68 71
e 69 71
e 70 71
e 27 72
e 36 72
e 40 72
e 49 72
e 57 72
e 61 72
e 67 72
e 2 73
e 6 73
e 7 73
e 17 73
e 19 73
e 22 73
e 25 73
e 26 73
e 34 73
e 37 73
e 3 74
e 4 74
e 9 74
e 10 74
e 13 74
e 21 74
e 23 74
e 26 74
e 30 74
e 34 74
e 43 74
e 67 74
e 4 75
e 7 75
e 10 75
e 11 75
e 18 75
e 23 75
e 36 75
e 39 75
e 41 75
e 46 75
e 2 76
e 4 76
e 38 76
e 40 76
e 41 76
e 47 76
e 65 76
e 66 76
e 72 76
e 2 77
e 19 77
e 26 77
e 27 77
e 30 77
e 37 77
e 46 77
e 48 77
e 69 77
e 73 77
e 74 77
e 6 78
e 8 78
e 16 78
e 23 78
e 26 78
e 27 78
e 37 78
e 41 78
e 63 78
e 74 78
e 76 78
e 2 79
e 9 79
e 10 79
e 17 79
e 18 79
e 25 79
e 29 79
e 31 79
e 57 79
e 64 79
e 76 79
e 8 80
e 20 80
e 35 80
e 45 80
e 55 80
e 59 80
e 62 80
e 69 80
e 78 80
e 9 81
e 13 81
e 15 81
e 19 81
e 26 81
e 28 81
e 42 81
e 47 81
e 50 81
e 60 81
e 66 81
e 69 81
e 71 81
e 74 81
e 75 81
e 78 81
e 13 82
e 14 82
e 17 82
e 33 82
e 37 82
e 51 82
e 53 82
e 54 82
e 59 82
e 71 82
e 72 82
e 79 82
e 12 83
e 17 83
e 21 83
e 45 83
e 47 83
e 48 83
e 49 83
e 59 83
e 65 83
e 5 84
e 6 84
e 11 84
e 16 84
e 19 84
e 31 84
e 38 84
e 39 84
e 40 84
e 41 84
e 45 84
e 47 84
e 59 84
e 60 84
e 64 84
e 4 85
e 11 85
e 15 85
e 16 85
e 24 85
e 30 85
e 33 85
e 35 85
e 38 85
e 47 85
e 57 85
e 60 85
e 72 85
e 74 85
e 76 85
e 7 86
e 46 86
e 49 86
e 51 86
e 61 86
e 6 87
e 15 87
e 26 87
e 30 87
e 38 87
e 42 87
e 65 87
e 73 87
e 74 87
e 5 88
e 16 88
e 22 88
e 29 88
e 34 88
e 36 88
e 39 88
e 40 88
e 44 88
e 59 88
e 62 88
e 70 88
e 10 89
e 16 89
e 17 89
e 26 89
e 33 89
e 40 89
e 43 89
e 61 89
e 62 89
e 79 89
e 1 90
e 2 90
e 9 90
e 13 90
e 19 90
e 23 90
e 29 90
e 36 90
e 46 90
e 58 90
e 59 90
e 65 90
e 71 90
e 72 90
e 78 90
e 80 90
e 82 90
